# Objective value = 163
X(i,j,k)_0_0_1 0
X(i,j,k)_0_0_2 0
X(i,j,k)_0_0_3 0
X(i,j,k)_0_0_4 0
X(i,j,k)_0_0_5 0
X(i,j,k)_0_0_6 0
X(i,j,k)_0_0_7 0
X(i,j,k)_0_0_8 1
X(i,j,k)_0_0_9 0
X(i,j,k)_0_0_10 0
X(i,j,k)_0_1_1 0
X(i,j,k)_0_1_2 0
X(i,j,k)_0_1_3 0
X(i,j,k)_0_1_4 0
X(i,j,k)_0_1_5 0
X(i,j,k)_0_1_6 0
X(i,j,k)_0_1_7 0
X(i,j,k)_0_1_8 0
X(i,j,k)_0_1_9 0
X(i,j,k)_0_1_10 0
X(i,j,k)_0_2_1 0
X(i,j,k)_0_2_2 0
X(i,j,k)_0_2_3 0
X(i,j,k)_0_2_4 0
X(i,j,k)_0_2_5 0
X(i,j,k)_0_2_6 0
X(i,j,k)_0_2_7 1
X(i,j,k)_0_2_8 0
X(i,j,k)_0_2_9 0
X(i,j,k)_0_2_10 0
X(i,j,k)_0_3_1 0
X(i,j,k)_0_3_2 0
X(i,j,k)_0_3_3 0
X(i,j,k)_0_3_4 0
X(i,j,k)_0_3_5 0
X(i,j,k)_0_3_6 0
X(i,j,k)_0_3_7 0
X(i,j,k)_0_3_8 0
X(i,j,k)_0_3_9 0
X(i,j,k)_0_3_10 0
X(i,j,k)_0_4_1 0
X(i,j,k)_0_4_2 0
X(i,j,k)_0_4_3 0
X(i,j,k)_0_4_4 0
X(i,j,k)_0_4_5 0
X(i,j,k)_0_4_6 1
X(i,j,k)_0_4_7 0
X(i,j,k)_0_4_8 0
X(i,j,k)_0_4_9 0
X(i,j,k)_0_4_10 0
X(i,j,k)_0_5_1 0
X(i,j,k)_0_5_2 0
X(i,j,k)_0_5_3 0
X(i,j,k)_0_5_4 0
X(i,j,k)_0_5_5 0
X(i,j,k)_0_5_6 0
X(i,j,k)_0_5_7 0
X(i,j,k)_0_5_8 0
X(i,j,k)_0_5_9 0
X(i,j,k)_0_5_10 0
X(i,j,k)_0_6_1 0
X(i,j,k)_0_6_2 0
X(i,j,k)_0_6_3 0
X(i,j,k)_0_6_4 0
X(i,j,k)_0_6_5 0
X(i,j,k)_0_6_6 0
X(i,j,k)_0_6_7 0
X(i,j,k)_0_6_8 0
X(i,j,k)_0_6_9 0
X(i,j,k)_0_6_10 0
X(i,j,k)_0_7_1 0
X(i,j,k)_0_7_2 0
X(i,j,k)_0_7_3 0
X(i,j,k)_0_7_4 1
X(i,j,k)_0_7_5 0
X(i,j,k)_0_7_6 0
X(i,j,k)_0_7_7 0
X(i,j,k)_0_7_8 0
X(i,j,k)_0_7_9 0
X(i,j,k)_0_7_10 0
X(i,j,k)_0_8_1 0
X(i,j,k)_0_8_2 1
X(i,j,k)_0_8_3 0
X(i,j,k)_0_8_4 0
X(i,j,k)_0_8_5 0
X(i,j,k)_0_8_6 0
X(i,j,k)_0_8_7 0
X(i,j,k)_0_8_8 0
X(i,j,k)_0_8_9 0
X(i,j,k)_0_8_10 0
X(i,j,k)_0_9_1 0
X(i,j,k)_0_9_2 0
X(i,j,k)_0_9_3 0
X(i,j,k)_0_9_4 0
X(i,j,k)_0_9_5 0
X(i,j,k)_0_9_6 0
X(i,j,k)_0_9_7 0
X(i,j,k)_0_9_8 0
X(i,j,k)_0_9_9 0
X(i,j,k)_0_9_10 0
X(i,j,k)_0_10_1 0
X(i,j,k)_0_10_2 0
X(i,j,k)_0_10_3 0
X(i,j,k)_0_10_4 0
X(i,j,k)_0_10_5 0
X(i,j,k)_0_10_6 0
X(i,j,k)_0_10_7 0
X(i,j,k)_0_10_8 0
X(i,j,k)_0_10_9 0
X(i,j,k)_0_10_10 0
X(i,j,k)_1_0_1 0
X(i,j,k)_1_0_2 0
X(i,j,k)_1_0_3 0
X(i,j,k)_1_0_4 0
X(i,j,k)_1_0_5 0
X(i,j,k)_1_0_6 0
X(i,j,k)_1_0_7 0
X(i,j,k)_1_0_8 0
X(i,j,k)_1_0_9 1
X(i,j,k)_1_0_10 0
X(i,j,k)_1_1_1 0
X(i,j,k)_1_1_2 0
X(i,j,k)_1_1_3 1
X(i,j,k)_1_1_4 0
X(i,j,k)_1_1_5 0
X(i,j,k)_1_1_6 0
X(i,j,k)_1_1_7 0
X(i,j,k)_1_1_8 0
X(i,j,k)_1_1_9 0
X(i,j,k)_1_1_10 0
X(i,j,k)_1_2_1 0
X(i,j,k)_1_2_2 0
X(i,j,k)_1_2_3 0
X(i,j,k)_1_2_4 0
X(i,j,k)_1_2_5 0
X(i,j,k)_1_2_6 0
X(i,j,k)_1_2_7 0
X(i,j,k)_1_2_8 0
X(i,j,k)_1_2_9 0
X(i,j,k)_1_2_10 0
X(i,j,k)_1_3_1 0
X(i,j,k)_1_3_2 0
X(i,j,k)_1_3_3 0
X(i,j,k)_1_3_4 0
X(i,j,k)_1_3_5 1
X(i,j,k)_1_3_6 0
X(i,j,k)_1_3_7 0
X(i,j,k)_1_3_8 0
X(i,j,k)_1_3_9 0
X(i,j,k)_1_3_10 0
X(i,j,k)_1_4_1 0
X(i,j,k)_1_4_2 0
X(i,j,k)_1_4_3 0
X(i,j,k)_1_4_4 0
X(i,j,k)_1_4_5 0
X(i,j,k)_1_4_6 0
X(i,j,k)_1_4_7 0
X(i,j,k)_1_4_8 0
X(i,j,k)_1_4_9 0
X(i,j,k)_1_4_10 0
X(i,j,k)_1_5_1 0
X(i,j,k)_1_5_2 0
X(i,j,k)_1_5_3 0
X(i,j,k)_1_5_4 0
X(i,j,k)_1_5_5 0
X(i,j,k)_1_5_6 0
X(i,j,k)_1_5_7 0
X(i,j,k)_1_5_8 0
X(i,j,k)_1_5_9 0
X(i,j,k)_1_5_10 1
X(i,j,k)_1_6_1 0
X(i,j,k)_1_6_2 0
X(i,j,k)_1_6_3 0
X(i,j,k)_1_6_4 0
X(i,j,k)_1_6_5 0
X(i,j,k)_1_6_6 0
X(i,j,k)_1_6_7 0
X(i,j,k)_1_6_8 0
X(i,j,k)_1_6_9 0
X(i,j,k)_1_6_10 0
X(i,j,k)_1_7_1 0
X(i,j,k)_1_7_2 0
X(i,j,k)_1_7_3 0
X(i,j,k)_1_7_4 0
X(i,j,k)_1_7_5 0
X(i,j,k)_1_7_6 0
X(i,j,k)_1_7_7 0
X(i,j,k)_1_7_8 0
X(i,j,k)_1_7_9 0
X(i,j,k)_1_7_10 0
X(i,j,k)_1_8_1 0
X(i,j,k)_1_8_2 0
X(i,j,k)_1_8_3 0
X(i,j,k)_1_8_4 0
X(i,j,k)_1_8_5 0
X(i,j,k)_1_8_6 0
X(i,j,k)_1_8_7 0
X(i,j,k)_1_8_8 0
X(i,j,k)_1_8_9 0
X(i,j,k)_1_8_10 0
X(i,j,k)_1_9_1 1
X(i,j,k)_1_9_2 0
X(i,j,k)_1_9_3 0
X(i,j,k)_1_9_4 0
X(i,j,k)_1_9_5 0
X(i,j,k)_1_9_6 0
X(i,j,k)_1_9_7 0
X(i,j,k)_1_9_8 0
X(i,j,k)_1_9_9 0
X(i,j,k)_1_9_10 0
X(i,j,k)_1_10_1 0
X(i,j,k)_1_10_2 0
X(i,j,k)_1_10_3 0
X(i,j,k)_1_10_4 0
X(i,j,k)_1_10_5 0
X(i,j,k)_1_10_6 0
X(i,j,k)_1_10_7 0
X(i,j,k)_1_10_8 0
X(i,j,k)_1_10_9 0
X(i,j,k)_1_10_10 0
C(i,j)_0_0 0
C(i,j)_0_1 0
C(i,j)_0_2 28
C(i,j)_0_3 0
C(i,j)_0_4 115
C(i,j)_0_5 69
C(i,j)_0_6 163
C(i,j)_0_7 111
C(i,j)_0_8 10
C(i,j)_0_9 0
C(i,j)_0_10 139
C(i,j)_1_0 0
C(i,j)_1_1 47
C(i,j)_1_2 163
C(i,j)_1_3 68
C(i,j)_1_4 163
C(i,j)_1_5 121
C(i,j)_1_6 62
C(i,j)_1_7 121
C(i,j)_1_8 63
C(i,j)_1_9 22
C(i,j)_1_10 163
Cmax 163
